<number of tasks>
50

<cycle time>
1000

<order strength>
0.199


<task times>
1 343
2 125
3 263
4 166
5 196
6 141
7 81
8 209
9 523
10 37
11 366
12 141
13 472
14 165
15 62
16 492
17 188
18 171
19 82
20 474
21 24
22 364
23 482
24 520
25 183
26 89
27 163
28 232
29 68
30 469
31 170
32 78
33 150
34 172
35 431
36 169
37 98
38 97
39 198
40 63
41 537
42 150
43 437
44 36
45 468
46 115
47 535
48 57
49 99
50 279

<precedence relations>
1,8
3,9
4,8
5,10
5,12
6,11
8,14
9,18
10,13
10,15
10,16
11,34
11,43
12,17
12,34
12,42
13,49
14,21
14,22
14,23
14,25
15,19
16,20
18,24
18,25
19,49
20,31
21,32
21,46
22,27
23,26
23,30
23,33
24,28
24,29
26,35
28,36
28,37
31,38
32,34
33,39
34,40
34,50
36,40
36,46
37,43
37,44
37,45
38,41
39,42
41,47
41,50
43,49
44,47
44,48
44,49
45,50

<end>
